87 99 
91 89 
37 14 
87 16 
7 50 
75 79 
3 63 
30 0 
27 87 
53 53 
12 88 
77 85 
48 1 
89 33 
62 15 
72 1 
14 63 
90 51 
29 30 
19 37 
80 95 
68 35 
10 99 
88 37 
86 93 
42 50 
81 71 
36 81 
73 77 
66 87 
92 91 
40 58 
6 30 
61 36 
12 81 
73 44 
28 41 
32 38 
40 20 
27 78 
65 70 
29 46 
93 17 
79 18 
94 45 
5 87 
36 45 
97 95 
28 11 
31 40 
